152
0 107 142 46 147 106 56 137 53 36 
28 78 96 34 71 134 114 8 132 109 
12 122 144 104 138 59 133 121 113 90 
101 54 24 39 16 141 40 89 95 126 
68 7 43 55 88 9 115 130 81 102 
136 18 10 27 93 58 120 119 47 70 
123 5 31 91 111 92 100 23 108 75 
103 14 124 129 79 2 98 37 20 45 
44 116 94 148 64 117 42 146 38 118 
19 66 76 41 25 63 72 15 85 97 
74 135 99 128 143 11 51 3 1 61 
6 26 21 105 149 69 86 131 145 110 
139 127 22 60 29 87 77 84 125 48 
49 67 4 112 80 150 17 151 13 140 
35 30 32 83 57 62 65 73 33 52 
82 50 
